NAME : single
TYPE : ATSP
DIMENSION : 5
EDGE_WEIGHT_TYPE : EXPLICIT
EDGE_WEIGHT_FORMAT : FULL_MATRIX
EDGE_WEIGHT_SECTION
0 329 887 553 9999900 
9999900 0 417 127 375 
9999900 417 0 338 404 
9999900 127 338 0 385 
0 9999900 9999900 9999900 0 
EOF